6 16 4 10
19 20 10 12 5 2 2 10 20 7 15 14 14 11 5 20 
7.62 6.25 5.03 4.06 4.45 6.42 3.71 1.68 7.73 0.2 0.56 3.29 2.53 2.67 3.62 0.79 
4.63 2.76 7.24 7.46 2.03 7.47 2.76 1.89 4.6 0.76 6.24 7.01 6.27 3.38 0.15 5.51 
2.19 0.29 3.23 2.43 5.31 3.16 4.15 3.85 3.85 1.25 0.08 7.59 3.89 0.2 0.93 7.47 
6.87 5.79 7.47 3.51 2.7 2.42 1.68 7.91 1.91 4.5 0.6 0.81 0.18 7.92 1.41 7.3 
4 4 4 4 4 4 4 4 4 4 4 4 4 4 4 4 
0.74 2.61 1.29 3.79 7 1.77 5.53 3.37 7.27 1.95 0.17 6.51 7.83 2.57 1.85 5.13 
1 1 1 1 1 1 1 1 1 1 1 1 1 1 1 1 
1 1 1 1 1 1 1 1 1 1 1 1 1 1 1 1 
1 1 1 1 1 1 1 1 1 1 1 1 1 1 1 1 
1 1 1 1 1 1 1 1 1 1 1 1 1 1 1 1 
1 1 1 1 1 1 1 1 1 1 1 1 1 1 1 1 
1 1 1 1 1 1 1 1 1 1 1 1 1 1 1 1 
0.01 0.01 0.01 0.01 0.01 0.01 0.01 0.01 0.01 0.01 0.01 0.01 0.01 0.01 0.01 0.01 
0.02 0.02 0.02 0.02 0.02 0.02 0.02 0.02 0.02 0.02 0.02 0.02 0.02 0.02 0.02 0.02 
0.03 0.03 0.03 0.03 0.03 0.03 0.03 0.03 0.03 0.03 0.03 0.03 0.03 0.03 0.03 0.03 
0.04 0.04 0.04 0.04 0.04 0.04 0.04 0.04 0.04 0.04 0.04 0.04 0.04 0.04 0.04 0.04 
0.05 0.05 0.05 0.05 0.05 0.05 0.05 0.05 0.05 0.05 0.05 0.05 0.05 0.05 0.05 0.05 
1 1 1 1 1 1 1 1 1 1 1 1 1 1 1 1 
